certificates/rado_a11_c178_N23.cnf
c Rad2 upper bound instance: x1 + 11*x2 - x3 = 178, interval [1,23]
p cnf 23 96
1 10 17 0
-1 -10 -17 0
1 18 21 0
-1 -18 -21 0
2 11 17 0
-2 -11 -17 0
2 18 22 0
-2 -18 -22 0
1 3 16 0
-1 -3 -16 0
3 12 17 0
-3 -12 -17 0
3 18 23 0
-3 -18 -23 0
2 4 16 0
-2 -4 -16 0
4 13 17 0
-4 -13 -17 0
3 5 16 0
-3 -5 -16 0
5 14 17 0
-5 -14 -17 0
4 6 16 0
-4 -6 -16 0
6 15 17 0
-6 -15 -17 0
5 7 16 0
-5 -7 -16 0
7 16 17 0
-7 -16 -17 0
6 8 16 0
-6 -8 -16 0
8 17 0
-8 -17 0
7 9 16 0
-7 -9 -16 0
9 17 18 0
-9 -17 -18 0
8 10 16 0
-8 -10 -16 0
10 17 19 0
-10 -17 -19 0
9 11 16 0
-9 -11 -16 0
11 17 20 0
-11 -17 -20 0
10 12 16 0
-10 -12 -16 0
12 17 21 0
-12 -17 -21 0
11 13 16 0
-11 -13 -16 0
13 17 22 0
-13 -17 -22 0
1 14 15 0
-1 -14 -15 0
12 14 16 0
-12 -14 -16 0
14 17 23 0
-14 -17 -23 0
2 15 0
-2 -15 0
13 15 16 0
-13 -15 -16 0
3 15 16 0
-3 -15 -16 0
14 16 0
-14 -16 0
4 15 17 0
-4 -15 -17 0
15 16 17 0
-15 -16 -17 0
5 15 18 0
-5 -15 -18 0
16 18 0
-16 -18 0
6 15 19 0
-6 -15 -19 0
16 17 19 0
-16 -17 -19 0
7 15 20 0
-7 -15 -20 0
16 18 20 0
-16 -18 -20 0
8 15 21 0
-8 -15 -21 0
16 19 21 0
-16 -19 -21 0
9 15 22 0
-9 -15 -22 0
16 20 22 0
-16 -20 -22 0
10 15 23 0
-10 -15 -23 0
16 21 23 0
-16 -21 -23 0
