certificates/rado_a11_c178_N23.drat
-21 -23 0
d -21 -16 -23 0
-18 -22 -23 0
-15 18 -22 0
-22 -23 0
d -18 -22 -23 0
18 -23 0
-18 -23 0
d -18 -3 -23 0
-23 0
-15 16 0
-18 0
3 0
16 0
-1 0
-5 0
-15 0
-14 0
21 0
0
